491,216
406,131
740,415
852,461
880,470
888,438
947,599
1041,766
1020,745
839,624
630,81
681,-14
810,7
764,150
804,237
707,393
575,512
601,446
657,423
607,178
787,352
663,524
521,487
254,623
1137,554
1071,406
1006,457
598,662
439,582
464,833
602,909
723,672
852,351
723,140
1162,161
945,42
523,188
563,388
